p cnf 118 26
-16 -13 -1 0
-16 14 -1 0
-17 16 -8 -1 0
-18 17 -1 0
-18 3 -1 0
-18 19 -1 0
-18 20 -1 0
-6 18 -1 -39 0
-1 39 0
-67 -64 -53 0
-67 65 -53 0
-68 67 -60 -53 0
-69 68 -53 0
-69 70 -53 0
-69 71 -53 0
-58 69 -53 -79 0
-53 79 0
-25 -105 0
-26 -105 0
32 -105 0
33 -105 0
6 -106 0
8 -106 0
58 -106 0
60 -106 0
64 -65 -20 -3 -106 25 26 -32 -33 -70 -71 -14 13 -19 0
